(set-logic QF_NRA)
(set-info :source |Benchmarks generated from hycomp (https://es-static.fbk.eu/tools/hycomp/). BMC instances of non-linear hybrid automata taken from: Alessandro Cimatti, Sergio Mover, Stefano Tonetta, A quantifier-free SMT encoding of non-linear hybrid automata, FMCAD 2012 and Alessandro Cimatti, Sergio Mover, Stefano Tonetta, Quantier-free encoding of invariants for Hybrid Systems, Formal Methods in System Design. This instance solves a BMC problem of depth 3 and uses the quantifier free encoding with lemmas encoding. Contacts: Sergio Mover (mover@fbk.eu), Stefano Tonetta (tonettas@fbk.eu), Alessandro Cimatti (cimatti@fbk.eu).|)
(set-info :smt-lib-version 2.0)
(set-info :category "industrial")
(set-info :status unsat)
;; MathSAT API call trace
;; generated on Mon Mar 19 10:45:13 2012
(declare-fun b.EVENT.0__AT2 () Bool)
(declare-fun b.counter.3__AT1 () Bool)
(declare-fun b.counter.1__AT2 () Bool)
(declare-fun b.EVENT.1__AT0 () Bool)
(declare-fun b.x__AT0 () Real)
(declare-fun b.time__AT3 () Real)
(declare-fun b.EVENT.1__AT2 () Bool)
(declare-fun b.counter.2__AT2 () Bool)
(declare-fun b.speed_x__AT1 () Real)
(declare-fun b.delta__AT3 () Real)
(declare-fun b.counter.3__AT2 () Bool)
(declare-fun b.time__AT1 () Real)
(declare-fun g__AT0 () Real)
(declare-fun b.y__AT0 () Real)
(declare-fun b.EVENT.0__AT1 () Bool)
(declare-fun b.speed_y__AT1 () Real)
(declare-fun b.EVENT.0__AT3 () Bool)
(declare-fun b.delta__AT1 () Real)
(declare-fun b.counter.0__AT0 () Bool)
(declare-fun b.EVENT.1__AT1 () Bool)
(declare-fun b.EVENT.1__AT3 () Bool)
(declare-fun b.speed_x__AT2 () Real)
(declare-fun b.counter.1__AT0 () Bool)
(declare-fun b.delta__AT0 () Real)
(declare-fun b.y__AT3 () Real)
(declare-fun b.speed_y__AT2 () Real)
(declare-fun b.EVENT.0__AT0 () Bool)
(declare-fun b.counter.0__AT3 () Bool)
(declare-fun b.x__AT3 () Real)
(declare-fun b.counter.1__AT3 () Bool)
(declare-fun b.x__AT1 () Real)
(declare-fun b.counter.2__AT3 () Bool)
(declare-fun b.counter.3__AT3 () Bool)
(declare-fun b.speed_y__AT0 () Real)
(declare-fun b.speed_x__AT3 () Real)
(declare-fun b.speed_y__AT3 () Real)
(declare-fun b.counter.3__AT0 () Bool)
(declare-fun b.event_is_timed__AT0 () Bool)
(declare-fun b.event_is_timed__AT2 () Bool)
(declare-fun speed_loss__AT0 () Real)
(declare-fun b.y__AT1 () Real)
(declare-fun b.event_is_timed__AT1 () Bool)
(declare-fun b.counter.0__AT1 () Bool)
(declare-fun b.event_is_timed__AT3 () Bool)
(declare-fun b.speed_x__AT0 () Real)
(declare-fun b.time__AT2 () Real)
(declare-fun b.counter.1__AT1 () Bool)
(declare-fun b.y__AT2 () Real)
(declare-fun b.time__AT0 () Real)
(declare-fun b.counter.2__AT0 () Bool)
(declare-fun b.delta__AT2 () Real)
(declare-fun b.counter.2__AT1 () Bool)
(declare-fun b.counter.0__AT2 () Bool)
(declare-fun b.x__AT2 () Real)
(assert (let ((.def_74 (* (- 1.0) g__AT0)))
(let ((.def_75 (* (/ 1 2) .def_74)))
(let ((.def_82 (* 2.0 .def_75)))
(let ((.def_126 (* (- 1.0) .def_82)))
(let ((.def_803 (* .def_126 b.delta__AT3)))
(let ((.def_806 (<= .def_803 b.speed_y__AT3)))
(let ((.def_813 (not .def_806)))
(let ((.def_766 (<= 0.0 b.speed_y__AT3)))
(let ((.def_814 (or .def_766 .def_813)))
(let ((.def_804 (<= b.speed_y__AT3 .def_803)))
(let ((.def_780 (<= b.speed_y__AT3 0.0 )))
(let ((.def_781 (not .def_780)))
(let ((.def_812 (or .def_781 .def_804)))
(let ((.def_815 (and .def_812 .def_814)))
(let ((.def_117 (<= g__AT0 0.0 )))
(let ((.def_816 (or .def_117 .def_815)))
(let ((.def_808 (not .def_804)))
(let ((.def_809 (or .def_780 .def_808)))
(let ((.def_767 (not .def_766)))
(let ((.def_807 (or .def_767 .def_806)))
(let ((.def_810 (and .def_807 .def_809)))
(let ((.def_122 (<= 0.0 g__AT0)))
(let ((.def_811 (or .def_122 .def_810)))
(let ((.def_817 (and .def_811 .def_816)))
(let ((.def_805 (and .def_780 .def_804)))
(let ((.def_818 (and .def_805 .def_817)))
(let ((.def_762 (* .def_82 b.delta__AT3)))
(let ((.def_763 (+ b.speed_y__AT3 .def_762)))
(let ((.def_778 (<= .def_763 0.0 )))
(let ((.def_779 (not .def_778)))
(let ((.def_798 (or .def_779 .def_780)))
(let ((.def_764 (<= 0.0 .def_763)))
(let ((.def_797 (or .def_764 .def_767)))
(let ((.def_799 (and .def_797 .def_798)))
(let ((.def_800 (or .def_122 .def_799)))
(let ((.def_765 (not .def_764)))
(let ((.def_794 (or .def_765 .def_766)))
(let ((.def_793 (or .def_778 .def_781)))
(let ((.def_795 (and .def_793 .def_794)))
(let ((.def_796 (or .def_117 .def_795)))
(let ((.def_801 (and .def_796 .def_800)))
(let ((.def_792 (and .def_764 .def_766)))
(let ((.def_802 (and .def_792 .def_801)))
(let ((.def_819 (or .def_802 .def_818)))
(let ((.def_757 (* b.speed_y__AT3 b.delta__AT3)))
(let ((.def_755 (* b.delta__AT3 b.delta__AT3)))
(let ((.def_756 (* .def_75 .def_755)))
(let ((.def_758 (+ .def_756 .def_757)))
(let ((.def_759 (+ b.y__AT3 .def_758)))
(let ((.def_772 (<= .def_759 0.0 )))
(let ((.def_786 (not .def_772)))
(let ((.def_770 (<= b.y__AT3 0.0 )))
(let ((.def_787 (or .def_770 .def_786)))
(let ((.def_745 (<= 0.0 b.y__AT3)))
(let ((.def_784 (not .def_745)))
(let ((.def_760 (<= 0.0 .def_759)))
(let ((.def_785 (or .def_760 .def_784)))
(let ((.def_788 (and .def_785 .def_787)))
(let ((.def_782 (or .def_779 .def_781)))
(let ((.def_783 (not .def_782)))
(let ((.def_789 (or .def_783 .def_788)))
(let ((.def_774 (not .def_760)))
(let ((.def_775 (or .def_745 .def_774)))
(let ((.def_771 (not .def_770)))
(let ((.def_773 (or .def_771 .def_772)))
(let ((.def_776 (and .def_773 .def_775)))
(let ((.def_768 (or .def_765 .def_767)))
(let ((.def_769 (not .def_768)))
(let ((.def_777 (or .def_769 .def_776)))
(let ((.def_790 (and .def_777 .def_789)))
(let ((.def_761 (and .def_745 .def_760)))
(let ((.def_791 (and .def_761 .def_790)))
(let ((.def_820 (and .def_791 .def_819)))
(let ((.def_55 (<= g__AT0 10.0 )))
(let ((.def_54 (<= 8.0 g__AT0)))
(let ((.def_56 (and .def_54 .def_55)))
(let ((.def_821 (and .def_56 .def_820)))
(let ((.def_63 (<= speed_loss__AT0 (/ 1 2))))
(let ((.def_60 (<= (/ 1 10) speed_loss__AT0)))
(let ((.def_64 (and .def_60 .def_63)))
(let ((.def_822 (and .def_64 .def_821)))
(let ((.def_425 (not b.counter.0__AT2)))
(let ((.def_413 (not b.counter.1__AT2)))
(let ((.def_749 (and .def_413 .def_425)))
(let ((.def_420 (not b.counter.2__AT2)))
(let ((.def_750 (and .def_420 .def_749)))
(let ((.def_435 (not b.counter.3__AT2)))
(let ((.def_751 (and .def_435 .def_750)))
(let ((.def_65 (and .def_56 .def_64)))
(let ((.def_746 (and .def_65 .def_745)))
(let ((.def_742 (not b.EVENT.0__AT3)))
(let ((.def_740 (not b.EVENT.1__AT3)))
(let ((.def_743 (or .def_740 .def_742)))
(let ((.def_6 (not b.counter.0__AT3)))
(let ((.def_4 (not b.counter.1__AT3)))
(let ((.def_733 (or .def_4 .def_6)))
(let ((.def_737 (or b.counter.3__AT3 .def_733)))
(let ((.def_734 (or b.counter.2__AT3 .def_733)))
(let ((.def_9 (not b.counter.2__AT3)))
(let ((.def_732 (or .def_6 .def_9)))
(let ((.def_735 (and .def_732 .def_734)))
(let ((.def_12 (not b.counter.3__AT3)))
(let ((.def_736 (or .def_12 .def_735)))
(let ((.def_738 (and .def_736 .def_737)))
(let ((.def_744 (and .def_738 .def_743)))
(let ((.def_747 (and .def_744 .def_746)))
(let ((.def_727 (<= 0.0 b.delta__AT2)))
(let ((.def_523 (not b.EVENT.0__AT2)))
(let ((.def_521 (not b.EVENT.1__AT2)))
(let ((.def_631 (and .def_521 .def_523)))
(let ((.def_632 (not .def_631)))
(let ((.def_728 (or .def_632 .def_727)))
(let ((.def_729 (or b.EVENT.1__AT2 .def_728)))
(let ((.def_676 (= b.counter.0__AT3 b.counter.0__AT2)))
(let ((.def_674 (= b.counter.1__AT3 b.counter.1__AT2)))
(let ((.def_672 (= b.counter.2__AT3 b.counter.2__AT2)))
(let ((.def_671 (= b.counter.3__AT3 b.counter.3__AT2)))
(let ((.def_673 (and .def_671 .def_672)))
(let ((.def_675 (and .def_673 .def_674)))
(let ((.def_677 (and .def_675 .def_676)))
(let ((.def_724 (or .def_632 .def_677)))
(let ((.def_725 (or b.EVENT.1__AT2 .def_724)))
(let ((.def_684 (= b.x__AT2 b.x__AT3)))
(let ((.def_681 (= b.y__AT2 b.y__AT3)))
(let ((.def_718 (and .def_681 .def_684)))
(let ((.def_612 (= b.speed_x__AT2 b.speed_x__AT3)))
(let ((.def_719 (and .def_612 .def_718)))
(let ((.def_670 (= b.speed_y__AT2 b.speed_y__AT3)))
(let ((.def_720 (and .def_670 .def_719)))
(let ((.def_715 (= b.delta__AT2 0.0 )))
(let ((.def_716 (and .def_631 .def_715)))
(let ((.def_717 (not .def_716)))
(let ((.def_721 (or .def_717 .def_720)))
(let ((.def_722 (or b.EVENT.1__AT2 .def_721)))
(let ((.def_695 (= b.time__AT2 b.time__AT3)))
(let ((.def_707 (and .def_684 .def_695)))
(let ((.def_708 (and .def_681 .def_707)))
(let ((.def_709 (and .def_612 .def_708)))
(let ((.def_710 (and .def_670 .def_709)))
(let ((.def_711 (and .def_677 .def_710)))
(let ((.def_712 (or .def_521 .def_711)))
(let ((.def_698 (* (- 1.0) b.time__AT3)))
(let ((.def_701 (+ b.delta__AT2 .def_698)))
(let ((.def_702 (+ b.time__AT2 .def_701)))
(let ((.def_703 (= .def_702 0.0 )))
(let ((.def_704 (or .def_632 .def_703)))
(let ((.def_705 (or b.EVENT.1__AT2 .def_704)))
(let ((.def_696 (or .def_631 .def_695)))
(let ((.def_697 (or b.EVENT.1__AT2 .def_696)))
(let ((.def_706 (and .def_697 .def_705)))
(let ((.def_713 (and .def_706 .def_712)))
(let ((.def_691 (= .def_632 b.event_is_timed__AT3)))
(let ((.def_689 (= b.event_is_timed__AT2 .def_631)))
(let ((.def_692 (and .def_689 .def_691)))
(let ((.def_678 (and .def_670 .def_677)))
(let ((.def_634 (= b.y__AT2 0.0 )))
(let ((.def_547 (<= 0.0 b.speed_y__AT2)))
(let ((.def_548 (not .def_547)))
(let ((.def_635 (and .def_548 .def_634)))
(let ((.def_679 (or .def_635 .def_678)))
(let ((.def_647 (or .def_6 b.counter.0__AT2)))
(let ((.def_646 (or b.counter.0__AT3 .def_425)))
(let ((.def_648 (and .def_646 .def_647)))
(let ((.def_649 (and .def_4 .def_648)))
(let ((.def_650 (or b.counter.1__AT2 .def_649)))
(let ((.def_645 (or b.counter.1__AT3 .def_413)))
(let ((.def_651 (and .def_645 .def_650)))
(let ((.def_662 (and .def_9 .def_651)))
(let ((.def_663 (or b.counter.2__AT2 .def_662)))
(let ((.def_657 (and .def_4 .def_425)))
(let ((.def_658 (or b.counter.1__AT2 .def_657)))
(let ((.def_659 (and .def_645 .def_658)))
(let ((.def_660 (and b.counter.2__AT3 .def_659)))
(let ((.def_661 (or .def_420 .def_660)))
(let ((.def_664 (and .def_661 .def_663)))
(let ((.def_665 (and b.counter.3__AT3 .def_664)))
(let ((.def_666 (or b.counter.3__AT2 .def_665)))
(let ((.def_652 (and b.counter.2__AT3 .def_651)))
(let ((.def_653 (or b.counter.2__AT2 .def_652)))
(let ((.def_641 (or b.counter.1__AT3 b.counter.1__AT2)))
(let ((.def_639 (and .def_4 b.counter.0__AT3)))
(let ((.def_640 (or .def_413 .def_639)))
(let ((.def_642 (and .def_640 .def_641)))
(let ((.def_643 (and .def_9 .def_642)))
(let ((.def_644 (or .def_420 .def_643)))
(let ((.def_654 (and .def_644 .def_653)))
(let ((.def_655 (and .def_12 .def_654)))
(let ((.def_656 (or .def_435 .def_655)))
(let ((.def_667 (and .def_656 .def_666)))
(let ((.def_389 (* (- 1.0) b.speed_y__AT2)))
(let ((.def_183 (* (- 1.0) speed_loss__AT0)))
(let ((.def_184 (+ 1.0 .def_183)))
(let ((.def_637 (* .def_184 .def_389)))
(let ((.def_638 (= b.speed_y__AT3 .def_637)))
(let ((.def_668 (and .def_638 .def_667)))
(let ((.def_636 (not .def_635)))
(let ((.def_669 (or .def_636 .def_668)))
(let ((.def_680 (and .def_669 .def_679)))
(let ((.def_682 (and .def_680 .def_681)))
(let ((.def_683 (and .def_612 .def_682)))
(let ((.def_685 (and .def_683 .def_684)))
(let ((.def_686 (or .def_631 .def_685)))
(let ((.def_687 (or b.EVENT.1__AT2 .def_686)))
(let ((.def_622 (* (- 1.0) b.y__AT3)))
(let ((.def_538 (* b.speed_y__AT2 b.delta__AT2)))
(let ((.def_626 (+ .def_538 .def_622)))
(let ((.def_536 (* b.delta__AT2 b.delta__AT2)))
(let ((.def_537 (* .def_75 .def_536)))
(let ((.def_627 (+ .def_537 .def_626)))
(let ((.def_628 (+ b.y__AT2 .def_627)))
(let ((.def_629 (= .def_628 0.0 )))
(let ((.def_616 (* (- 1.0) b.speed_y__AT3)))
(let ((.def_614 (* .def_74 b.delta__AT2)))
(let ((.def_617 (+ .def_614 .def_616)))
(let ((.def_618 (+ b.speed_y__AT2 .def_617)))
(let ((.def_619 (= .def_618 0.0 )))
(let ((.def_607 (* (- 1.0) b.x__AT3)))
(let ((.def_605 (* b.speed_x__AT2 b.delta__AT2)))
(let ((.def_608 (+ .def_605 .def_607)))
(let ((.def_609 (+ b.x__AT2 .def_608)))
(let ((.def_610 (= .def_609 0.0 )))
(let ((.def_613 (and .def_610 .def_612)))
(let ((.def_620 (and .def_613 .def_619)))
(let ((.def_630 (and .def_620 .def_629)))
(let ((.def_633 (or .def_630 .def_632)))
(let ((.def_688 (and .def_633 .def_687)))
(let ((.def_693 (and .def_688 .def_692)))
(let ((.def_714 (and .def_693 .def_713)))
(let ((.def_723 (and .def_714 .def_722)))
(let ((.def_726 (and .def_723 .def_725)))
(let ((.def_730 (and .def_726 .def_729)))
(let ((.def_731 (and .def_521 .def_730)))
(let ((.def_748 (and .def_731 .def_747)))
(let ((.def_752 (and .def_748 .def_751)))
(let ((.def_584 (* .def_126 b.delta__AT2)))
(let ((.def_587 (<= .def_584 b.speed_y__AT2)))
(let ((.def_594 (not .def_587)))
(let ((.def_595 (or .def_547 .def_594)))
(let ((.def_585 (<= b.speed_y__AT2 .def_584)))
(let ((.def_561 (<= b.speed_y__AT2 0.0 )))
(let ((.def_562 (not .def_561)))
(let ((.def_593 (or .def_562 .def_585)))
(let ((.def_596 (and .def_593 .def_595)))
(let ((.def_597 (or .def_117 .def_596)))
(let ((.def_589 (not .def_585)))
(let ((.def_590 (or .def_561 .def_589)))
(let ((.def_588 (or .def_548 .def_587)))
(let ((.def_591 (and .def_588 .def_590)))
(let ((.def_592 (or .def_122 .def_591)))
(let ((.def_598 (and .def_592 .def_597)))
(let ((.def_586 (and .def_561 .def_585)))
(let ((.def_599 (and .def_586 .def_598)))
(let ((.def_543 (* .def_82 b.delta__AT2)))
(let ((.def_544 (+ b.speed_y__AT2 .def_543)))
(let ((.def_559 (<= .def_544 0.0 )))
(let ((.def_560 (not .def_559)))
(let ((.def_579 (or .def_560 .def_561)))
(let ((.def_545 (<= 0.0 .def_544)))
(let ((.def_578 (or .def_545 .def_548)))
(let ((.def_580 (and .def_578 .def_579)))
(let ((.def_581 (or .def_122 .def_580)))
(let ((.def_546 (not .def_545)))
(let ((.def_575 (or .def_546 .def_547)))
(let ((.def_574 (or .def_559 .def_562)))
(let ((.def_576 (and .def_574 .def_575)))
(let ((.def_577 (or .def_117 .def_576)))
(let ((.def_582 (and .def_577 .def_581)))
(let ((.def_573 (and .def_545 .def_547)))
(let ((.def_583 (and .def_573 .def_582)))
(let ((.def_600 (or .def_583 .def_599)))
(let ((.def_539 (+ .def_537 .def_538)))
(let ((.def_540 (+ b.y__AT2 .def_539)))
(let ((.def_553 (<= .def_540 0.0 )))
(let ((.def_567 (not .def_553)))
(let ((.def_551 (<= b.y__AT2 0.0 )))
(let ((.def_568 (or .def_551 .def_567)))
(let ((.def_526 (<= 0.0 b.y__AT2)))
(let ((.def_565 (not .def_526)))
(let ((.def_541 (<= 0.0 .def_540)))
(let ((.def_566 (or .def_541 .def_565)))
(let ((.def_569 (and .def_566 .def_568)))
(let ((.def_563 (or .def_560 .def_562)))
(let ((.def_564 (not .def_563)))
(let ((.def_570 (or .def_564 .def_569)))
(let ((.def_555 (not .def_541)))
(let ((.def_556 (or .def_526 .def_555)))
(let ((.def_552 (not .def_551)))
(let ((.def_554 (or .def_552 .def_553)))
(let ((.def_557 (and .def_554 .def_556)))
(let ((.def_549 (or .def_546 .def_548)))
(let ((.def_550 (not .def_549)))
(let ((.def_558 (or .def_550 .def_557)))
(let ((.def_571 (and .def_558 .def_570)))
(let ((.def_542 (and .def_526 .def_541)))
(let ((.def_572 (and .def_542 .def_571)))
(let ((.def_601 (and .def_572 .def_600)))
(let ((.def_602 (and .def_56 .def_601)))
(let ((.def_603 (and .def_64 .def_602)))
(let ((.def_201 (not b.counter.0__AT1)))
(let ((.def_189 (not b.counter.1__AT1)))
(let ((.def_530 (and .def_189 .def_201)))
(let ((.def_196 (not b.counter.2__AT1)))
(let ((.def_531 (and .def_196 .def_530)))
(let ((.def_211 (not b.counter.3__AT1)))
(let ((.def_532 (and .def_211 .def_531)))
(let ((.def_527 (and .def_65 .def_526)))
(let ((.def_524 (or .def_521 .def_523)))
(let ((.def_514 (or .def_413 .def_425)))
(let ((.def_518 (or b.counter.3__AT2 .def_514)))
(let ((.def_515 (or b.counter.2__AT2 .def_514)))
(let ((.def_513 (or .def_420 .def_425)))
(let ((.def_516 (and .def_513 .def_515)))
(let ((.def_517 (or .def_435 .def_516)))
(let ((.def_519 (and .def_517 .def_518)))
(let ((.def_525 (and .def_519 .def_524)))
(let ((.def_528 (and .def_525 .def_527)))
(let ((.def_508 (<= 0.0 b.delta__AT1)))
(let ((.def_299 (not b.EVENT.0__AT1)))
(let ((.def_297 (not b.EVENT.1__AT1)))
(let ((.def_404 (and .def_297 .def_299)))
(let ((.def_405 (not .def_404)))
(let ((.def_509 (or .def_405 .def_508)))
(let ((.def_510 (or b.EVENT.1__AT1 .def_509)))
(let ((.def_457 (= b.counter.0__AT1 b.counter.0__AT2)))
(let ((.def_455 (= b.counter.1__AT1 b.counter.1__AT2)))
(let ((.def_453 (= b.counter.2__AT1 b.counter.2__AT2)))
(let ((.def_452 (= b.counter.3__AT1 b.counter.3__AT2)))
(let ((.def_454 (and .def_452 .def_453)))
(let ((.def_456 (and .def_454 .def_455)))
(let ((.def_458 (and .def_456 .def_457)))
(let ((.def_505 (or .def_405 .def_458)))
(let ((.def_506 (or b.EVENT.1__AT1 .def_505)))
(let ((.def_465 (= b.x__AT1 b.x__AT2)))
(let ((.def_462 (= b.y__AT1 b.y__AT2)))
(let ((.def_499 (and .def_462 .def_465)))
(let ((.def_385 (= b.speed_x__AT1 b.speed_x__AT2)))
(let ((.def_500 (and .def_385 .def_499)))
(let ((.def_451 (= b.speed_y__AT1 b.speed_y__AT2)))
(let ((.def_501 (and .def_451 .def_500)))
(let ((.def_496 (= b.delta__AT1 0.0 )))
(let ((.def_497 (and .def_404 .def_496)))
(let ((.def_498 (not .def_497)))
(let ((.def_502 (or .def_498 .def_501)))
(let ((.def_503 (or b.EVENT.1__AT1 .def_502)))
(let ((.def_476 (= b.time__AT1 b.time__AT2)))
(let ((.def_488 (and .def_465 .def_476)))
(let ((.def_489 (and .def_462 .def_488)))
(let ((.def_490 (and .def_385 .def_489)))
(let ((.def_491 (and .def_451 .def_490)))
(let ((.def_492 (and .def_458 .def_491)))
(let ((.def_493 (or .def_297 .def_492)))
(let ((.def_479 (* (- 1.0) b.time__AT2)))
(let ((.def_482 (+ b.delta__AT1 .def_479)))
(let ((.def_483 (+ b.time__AT1 .def_482)))
(let ((.def_484 (= .def_483 0.0 )))
(let ((.def_485 (or .def_405 .def_484)))
(let ((.def_486 (or b.EVENT.1__AT1 .def_485)))
(let ((.def_477 (or .def_404 .def_476)))
(let ((.def_478 (or b.EVENT.1__AT1 .def_477)))
(let ((.def_487 (and .def_478 .def_486)))
(let ((.def_494 (and .def_487 .def_493)))
(let ((.def_472 (= .def_405 b.event_is_timed__AT2)))
(let ((.def_470 (= b.event_is_timed__AT1 .def_404)))
(let ((.def_473 (and .def_470 .def_472)))
(let ((.def_459 (and .def_451 .def_458)))
(let ((.def_407 (= b.y__AT1 0.0 )))
(let ((.def_320 (<= 0.0 b.speed_y__AT1)))
(let ((.def_321 (not .def_320)))
(let ((.def_408 (and .def_321 .def_407)))
(let ((.def_460 (or .def_408 .def_459)))
(let ((.def_426 (or b.counter.0__AT1 .def_425)))
(let ((.def_424 (or .def_201 b.counter.0__AT2)))
(let ((.def_427 (and .def_424 .def_426)))
(let ((.def_428 (and .def_413 .def_427)))
(let ((.def_429 (or b.counter.1__AT1 .def_428)))
(let ((.def_423 (or .def_189 b.counter.1__AT2)))
(let ((.def_430 (and .def_423 .def_429)))
(let ((.def_443 (and .def_420 .def_430)))
(let ((.def_444 (or b.counter.2__AT1 .def_443)))
(let ((.def_438 (and .def_201 .def_413)))
(let ((.def_439 (or b.counter.1__AT1 .def_438)))
(let ((.def_440 (and .def_423 .def_439)))
(let ((.def_441 (and b.counter.2__AT2 .def_440)))
(let ((.def_442 (or .def_196 .def_441)))
(let ((.def_445 (and .def_442 .def_444)))
(let ((.def_446 (and b.counter.3__AT2 .def_445)))
(let ((.def_447 (or b.counter.3__AT1 .def_446)))
(let ((.def_431 (and b.counter.2__AT2 .def_430)))
(let ((.def_432 (or b.counter.2__AT1 .def_431)))
(let ((.def_417 (or b.counter.1__AT1 b.counter.1__AT2)))
(let ((.def_415 (and .def_413 b.counter.0__AT2)))
(let ((.def_416 (or .def_189 .def_415)))
(let ((.def_418 (and .def_416 .def_417)))
(let ((.def_421 (and .def_418 .def_420)))
(let ((.def_422 (or .def_196 .def_421)))
(let ((.def_433 (and .def_422 .def_432)))
(let ((.def_436 (and .def_433 .def_435)))
(let ((.def_437 (or .def_211 .def_436)))
(let ((.def_448 (and .def_437 .def_447)))
(let ((.def_163 (* (- 1.0) b.speed_y__AT1)))
(let ((.def_410 (* .def_163 .def_184)))
(let ((.def_411 (= b.speed_y__AT2 .def_410)))
(let ((.def_449 (and .def_411 .def_448)))
(let ((.def_409 (not .def_408)))
(let ((.def_450 (or .def_409 .def_449)))
(let ((.def_461 (and .def_450 .def_460)))
(let ((.def_463 (and .def_461 .def_462)))
(let ((.def_464 (and .def_385 .def_463)))
(let ((.def_466 (and .def_464 .def_465)))
(let ((.def_467 (or .def_404 .def_466)))
(let ((.def_468 (or b.EVENT.1__AT1 .def_467)))
(let ((.def_395 (* (- 1.0) b.y__AT2)))
(let ((.def_311 (* b.speed_y__AT1 b.delta__AT1)))
(let ((.def_399 (+ .def_311 .def_395)))
(let ((.def_309 (* b.delta__AT1 b.delta__AT1)))
(let ((.def_310 (* .def_75 .def_309)))
(let ((.def_400 (+ .def_310 .def_399)))
(let ((.def_401 (+ b.y__AT1 .def_400)))
(let ((.def_402 (= .def_401 0.0 )))
(let ((.def_387 (* .def_74 b.delta__AT1)))
(let ((.def_390 (+ .def_387 .def_389)))
(let ((.def_391 (+ b.speed_y__AT1 .def_390)))
(let ((.def_392 (= .def_391 0.0 )))
(let ((.def_380 (* (- 1.0) b.x__AT2)))
(let ((.def_378 (* b.speed_x__AT1 b.delta__AT1)))
(let ((.def_381 (+ .def_378 .def_380)))
(let ((.def_382 (+ b.x__AT1 .def_381)))
(let ((.def_383 (= .def_382 0.0 )))
(let ((.def_386 (and .def_383 .def_385)))
(let ((.def_393 (and .def_386 .def_392)))
(let ((.def_403 (and .def_393 .def_402)))
(let ((.def_406 (or .def_403 .def_405)))
(let ((.def_469 (and .def_406 .def_468)))
(let ((.def_474 (and .def_469 .def_473)))
(let ((.def_495 (and .def_474 .def_494)))
(let ((.def_504 (and .def_495 .def_503)))
(let ((.def_507 (and .def_504 .def_506)))
(let ((.def_511 (and .def_507 .def_510)))
(let ((.def_512 (and .def_297 .def_511)))
(let ((.def_529 (and .def_512 .def_528)))
(let ((.def_533 (and .def_529 .def_532)))
(let ((.def_357 (* .def_126 b.delta__AT1)))
(let ((.def_360 (<= .def_357 b.speed_y__AT1)))
(let ((.def_367 (not .def_360)))
(let ((.def_368 (or .def_320 .def_367)))
(let ((.def_358 (<= b.speed_y__AT1 .def_357)))
(let ((.def_334 (<= b.speed_y__AT1 0.0 )))
(let ((.def_335 (not .def_334)))
(let ((.def_366 (or .def_335 .def_358)))
(let ((.def_369 (and .def_366 .def_368)))
(let ((.def_370 (or .def_117 .def_369)))
(let ((.def_362 (not .def_358)))
(let ((.def_363 (or .def_334 .def_362)))
(let ((.def_361 (or .def_321 .def_360)))
(let ((.def_364 (and .def_361 .def_363)))
(let ((.def_365 (or .def_122 .def_364)))
(let ((.def_371 (and .def_365 .def_370)))
(let ((.def_359 (and .def_334 .def_358)))
(let ((.def_372 (and .def_359 .def_371)))
(let ((.def_316 (* .def_82 b.delta__AT1)))
(let ((.def_317 (+ b.speed_y__AT1 .def_316)))
(let ((.def_332 (<= .def_317 0.0 )))
(let ((.def_333 (not .def_332)))
(let ((.def_352 (or .def_333 .def_334)))
(let ((.def_318 (<= 0.0 .def_317)))
(let ((.def_351 (or .def_318 .def_321)))
(let ((.def_353 (and .def_351 .def_352)))
(let ((.def_354 (or .def_122 .def_353)))
(let ((.def_319 (not .def_318)))
(let ((.def_348 (or .def_319 .def_320)))
(let ((.def_347 (or .def_332 .def_335)))
(let ((.def_349 (and .def_347 .def_348)))
(let ((.def_350 (or .def_117 .def_349)))
(let ((.def_355 (and .def_350 .def_354)))
(let ((.def_346 (and .def_318 .def_320)))
(let ((.def_356 (and .def_346 .def_355)))
(let ((.def_373 (or .def_356 .def_372)))
(let ((.def_312 (+ .def_310 .def_311)))
(let ((.def_313 (+ b.y__AT1 .def_312)))
(let ((.def_326 (<= .def_313 0.0 )))
(let ((.def_340 (not .def_326)))
(let ((.def_324 (<= b.y__AT1 0.0 )))
(let ((.def_341 (or .def_324 .def_340)))
(let ((.def_302 (<= 0.0 b.y__AT1)))
(let ((.def_338 (not .def_302)))
(let ((.def_314 (<= 0.0 .def_313)))
(let ((.def_339 (or .def_314 .def_338)))
(let ((.def_342 (and .def_339 .def_341)))
(let ((.def_336 (or .def_333 .def_335)))
(let ((.def_337 (not .def_336)))
(let ((.def_343 (or .def_337 .def_342)))
(let ((.def_328 (not .def_314)))
(let ((.def_329 (or .def_302 .def_328)))
(let ((.def_325 (not .def_324)))
(let ((.def_327 (or .def_325 .def_326)))
(let ((.def_330 (and .def_327 .def_329)))
(let ((.def_322 (or .def_319 .def_321)))
(let ((.def_323 (not .def_322)))
(let ((.def_331 (or .def_323 .def_330)))
(let ((.def_344 (and .def_331 .def_343)))
(let ((.def_315 (and .def_302 .def_314)))
(let ((.def_345 (and .def_315 .def_344)))
(let ((.def_374 (and .def_345 .def_373)))
(let ((.def_375 (and .def_56 .def_374)))
(let ((.def_376 (and .def_64 .def_375)))
(let ((.def_303 (and .def_65 .def_302)))
(let ((.def_300 (or .def_297 .def_299)))
(let ((.def_290 (or .def_189 .def_201)))
(let ((.def_294 (or b.counter.3__AT1 .def_290)))
(let ((.def_291 (or b.counter.2__AT1 .def_290)))
(let ((.def_289 (or .def_196 .def_201)))
(let ((.def_292 (and .def_289 .def_291)))
(let ((.def_293 (or .def_211 .def_292)))
(let ((.def_295 (and .def_293 .def_294)))
(let ((.def_301 (and .def_295 .def_300)))
(let ((.def_304 (and .def_301 .def_303)))
(let ((.def_284 (<= 0.0 b.delta__AT0)))
(let ((.def_49 (not b.EVENT.0__AT0)))
(let ((.def_47 (not b.EVENT.1__AT0)))
(let ((.def_177 (and .def_47 .def_49)))
(let ((.def_178 (not .def_177)))
(let ((.def_285 (or .def_178 .def_284)))
(let ((.def_286 (or b.EVENT.1__AT0 .def_285)))
(let ((.def_233 (= b.counter.0__AT0 b.counter.0__AT1)))
(let ((.def_231 (= b.counter.1__AT0 b.counter.1__AT1)))
(let ((.def_229 (= b.counter.2__AT0 b.counter.2__AT1)))
(let ((.def_228 (= b.counter.3__AT0 b.counter.3__AT1)))
(let ((.def_230 (and .def_228 .def_229)))
(let ((.def_232 (and .def_230 .def_231)))
(let ((.def_234 (and .def_232 .def_233)))
(let ((.def_281 (or .def_178 .def_234)))
(let ((.def_282 (or b.EVENT.1__AT0 .def_281)))
(let ((.def_241 (= b.x__AT1 b.x__AT0)))
(let ((.def_238 (= b.y__AT0 b.y__AT1)))
(let ((.def_275 (and .def_238 .def_241)))
(let ((.def_159 (= b.speed_x__AT0 b.speed_x__AT1)))
(let ((.def_276 (and .def_159 .def_275)))
(let ((.def_227 (= b.speed_y__AT0 b.speed_y__AT1)))
(let ((.def_277 (and .def_227 .def_276)))
(let ((.def_272 (= b.delta__AT0 0.0 )))
(let ((.def_273 (and .def_177 .def_272)))
(let ((.def_274 (not .def_273)))
(let ((.def_278 (or .def_274 .def_277)))
(let ((.def_279 (or b.EVENT.1__AT0 .def_278)))
(let ((.def_252 (= b.time__AT0 b.time__AT1)))
(let ((.def_264 (and .def_241 .def_252)))
(let ((.def_265 (and .def_238 .def_264)))
(let ((.def_266 (and .def_159 .def_265)))
(let ((.def_267 (and .def_227 .def_266)))
(let ((.def_268 (and .def_234 .def_267)))
(let ((.def_269 (or .def_47 .def_268)))
(let ((.def_255 (* (- 1.0) b.time__AT1)))
(let ((.def_258 (+ b.delta__AT0 .def_255)))
(let ((.def_259 (+ b.time__AT0 .def_258)))
(let ((.def_260 (= .def_259 0.0 )))
(let ((.def_261 (or .def_178 .def_260)))
(let ((.def_262 (or b.EVENT.1__AT0 .def_261)))
(let ((.def_253 (or .def_177 .def_252)))
(let ((.def_254 (or b.EVENT.1__AT0 .def_253)))
(let ((.def_263 (and .def_254 .def_262)))
(let ((.def_270 (and .def_263 .def_269)))
(let ((.def_248 (= .def_178 b.event_is_timed__AT1)))
(let ((.def_246 (= b.event_is_timed__AT0 .def_177)))
(let ((.def_249 (and .def_246 .def_248)))
(let ((.def_235 (and .def_227 .def_234)))
(let ((.def_180 (= b.y__AT0 0.0 )))
(let ((.def_87 (<= 0.0 b.speed_y__AT0)))
(let ((.def_88 (not .def_87)))
(let ((.def_181 (and .def_88 .def_180)))
(let ((.def_236 (or .def_181 .def_235)))
(let ((.def_202 (or b.counter.0__AT0 .def_201)))
(let ((.def_30 (not b.counter.0__AT0)))
(let ((.def_200 (or .def_30 b.counter.0__AT1)))
(let ((.def_203 (and .def_200 .def_202)))
(let ((.def_204 (and .def_189 .def_203)))
(let ((.def_205 (or b.counter.1__AT0 .def_204)))
(let ((.def_28 (not b.counter.1__AT0)))
(let ((.def_199 (or .def_28 b.counter.1__AT1)))
(let ((.def_206 (and .def_199 .def_205)))
(let ((.def_219 (and .def_196 .def_206)))
(let ((.def_220 (or b.counter.2__AT0 .def_219)))
(let ((.def_214 (and .def_30 .def_189)))
(let ((.def_215 (or b.counter.1__AT0 .def_214)))
(let ((.def_216 (and .def_199 .def_215)))
(let ((.def_217 (and b.counter.2__AT1 .def_216)))
(let ((.def_33 (not b.counter.2__AT0)))
(let ((.def_218 (or .def_33 .def_217)))
(let ((.def_221 (and .def_218 .def_220)))
(let ((.def_222 (and b.counter.3__AT1 .def_221)))
(let ((.def_223 (or b.counter.3__AT0 .def_222)))
(let ((.def_207 (and b.counter.2__AT1 .def_206)))
(let ((.def_208 (or b.counter.2__AT0 .def_207)))
(let ((.def_193 (or b.counter.1__AT0 b.counter.1__AT1)))
(let ((.def_191 (and .def_189 b.counter.0__AT1)))
(let ((.def_192 (or .def_28 .def_191)))
(let ((.def_194 (and .def_192 .def_193)))
(let ((.def_197 (and .def_194 .def_196)))
(let ((.def_198 (or .def_33 .def_197)))
(let ((.def_209 (and .def_198 .def_208)))
(let ((.def_212 (and .def_209 .def_211)))
(let ((.def_36 (not b.counter.3__AT0)))
(let ((.def_213 (or .def_36 .def_212)))
(let ((.def_224 (and .def_213 .def_223)))
(let ((.def_185 (* (- 1.0) b.speed_y__AT0)))
(let ((.def_186 (* .def_184 .def_185)))
(let ((.def_187 (= b.speed_y__AT1 .def_186)))
(let ((.def_225 (and .def_187 .def_224)))
(let ((.def_182 (not .def_181)))
(let ((.def_226 (or .def_182 .def_225)))
(let ((.def_237 (and .def_226 .def_236)))
(let ((.def_239 (and .def_237 .def_238)))
(let ((.def_240 (and .def_159 .def_239)))
(let ((.def_242 (and .def_240 .def_241)))
(let ((.def_243 (or .def_177 .def_242)))
(let ((.def_244 (or b.EVENT.1__AT0 .def_243)))
(let ((.def_169 (* (- 1.0) b.y__AT1)))
(let ((.def_77 (* b.speed_y__AT0 b.delta__AT0)))
(let ((.def_172 (+ .def_77 .def_169)))
(let ((.def_72 (* b.delta__AT0 b.delta__AT0)))
(let ((.def_76 (* .def_72 .def_75)))
(let ((.def_173 (+ .def_76 .def_172)))
(let ((.def_174 (+ b.y__AT0 .def_173)))
(let ((.def_175 (= .def_174 0.0 )))
(let ((.def_161 (* b.delta__AT0 .def_74)))
(let ((.def_164 (+ .def_161 .def_163)))
(let ((.def_165 (+ b.speed_y__AT0 .def_164)))
(let ((.def_166 (= .def_165 0.0 )))
(let ((.def_151 (* (- 1.0) b.x__AT1)))
(let ((.def_155 (+ .def_151 b.x__AT0)))
(let ((.def_149 (* b.delta__AT0 b.speed_x__AT0)))
(let ((.def_156 (+ .def_149 .def_155)))
(let ((.def_157 (= .def_156 0.0 )))
(let ((.def_160 (and .def_157 .def_159)))
(let ((.def_167 (and .def_160 .def_166)))
(let ((.def_176 (and .def_167 .def_175)))
(let ((.def_179 (or .def_176 .def_178)))
(let ((.def_245 (and .def_179 .def_244)))
(let ((.def_250 (and .def_245 .def_249)))
(let ((.def_271 (and .def_250 .def_270)))
(let ((.def_280 (and .def_271 .def_279)))
(let ((.def_283 (and .def_280 .def_282)))
(let ((.def_287 (and .def_283 .def_286)))
(let ((.def_288 (and .def_47 .def_287)))
(let ((.def_305 (and .def_288 .def_304)))
(let ((.def_31 (and .def_28 .def_30)))
(let ((.def_34 (and .def_31 .def_33)))
(let ((.def_37 (and .def_34 .def_36)))
(let ((.def_306 (and .def_37 .def_305)))
(let ((.def_127 (* b.delta__AT0 .def_126)))
(let ((.def_130 (<= .def_127 b.speed_y__AT0)))
(let ((.def_137 (not .def_130)))
(let ((.def_138 (or .def_87 .def_137)))
(let ((.def_128 (<= b.speed_y__AT0 .def_127)))
(let ((.def_101 (<= b.speed_y__AT0 0.0 )))
(let ((.def_102 (not .def_101)))
(let ((.def_136 (or .def_102 .def_128)))
(let ((.def_139 (and .def_136 .def_138)))
(let ((.def_140 (or .def_117 .def_139)))
(let ((.def_132 (not .def_128)))
(let ((.def_133 (or .def_101 .def_132)))
(let ((.def_131 (or .def_88 .def_130)))
(let ((.def_134 (and .def_131 .def_133)))
(let ((.def_135 (or .def_122 .def_134)))
(let ((.def_141 (and .def_135 .def_140)))
(let ((.def_129 (and .def_101 .def_128)))
(let ((.def_142 (and .def_129 .def_141)))
(let ((.def_83 (* b.delta__AT0 .def_82)))
(let ((.def_84 (+ b.speed_y__AT0 .def_83)))
(let ((.def_99 (<= .def_84 0.0 )))
(let ((.def_100 (not .def_99)))
(let ((.def_120 (or .def_100 .def_101)))
(let ((.def_85 (<= 0.0 .def_84)))
(let ((.def_119 (or .def_85 .def_88)))
(let ((.def_121 (and .def_119 .def_120)))
(let ((.def_123 (or .def_121 .def_122)))
(let ((.def_86 (not .def_85)))
(let ((.def_115 (or .def_86 .def_87)))
(let ((.def_114 (or .def_99 .def_102)))
(let ((.def_116 (and .def_114 .def_115)))
(let ((.def_118 (or .def_116 .def_117)))
(let ((.def_124 (and .def_118 .def_123)))
(let ((.def_113 (and .def_85 .def_87)))
(let ((.def_125 (and .def_113 .def_124)))
(let ((.def_143 (or .def_125 .def_142)))
(let ((.def_78 (+ .def_76 .def_77)))
(let ((.def_79 (+ b.y__AT0 .def_78)))
(let ((.def_93 (<= .def_79 0.0 )))
(let ((.def_107 (not .def_93)))
(let ((.def_91 (<= b.y__AT0 0.0 )))
(let ((.def_108 (or .def_91 .def_107)))
(let ((.def_66 (<= 0.0 b.y__AT0)))
(let ((.def_105 (not .def_66)))
(let ((.def_80 (<= 0.0 .def_79)))
(let ((.def_106 (or .def_80 .def_105)))
(let ((.def_109 (and .def_106 .def_108)))
(let ((.def_103 (or .def_100 .def_102)))
(let ((.def_104 (not .def_103)))
(let ((.def_110 (or .def_104 .def_109)))
(let ((.def_95 (not .def_80)))
(let ((.def_96 (or .def_66 .def_95)))
(let ((.def_92 (not .def_91)))
(let ((.def_94 (or .def_92 .def_93)))
(let ((.def_97 (and .def_94 .def_96)))
(let ((.def_89 (or .def_86 .def_88)))
(let ((.def_90 (not .def_89)))
(let ((.def_98 (or .def_90 .def_97)))
(let ((.def_111 (and .def_98 .def_110)))
(let ((.def_81 (and .def_66 .def_80)))
(let ((.def_112 (and .def_81 .def_111)))
(let ((.def_144 (and .def_112 .def_143)))
(let ((.def_145 (and .def_56 .def_144)))
(let ((.def_146 (and .def_64 .def_145)))
(let ((.def_67 (and .def_65 .def_66)))
(let ((.def_50 (or .def_47 .def_49)))
(let ((.def_40 (or .def_28 .def_30)))
(let ((.def_44 (or b.counter.3__AT0 .def_40)))
(let ((.def_41 (or b.counter.2__AT0 .def_40)))
(let ((.def_39 (or .def_30 .def_33)))
(let ((.def_42 (and .def_39 .def_41)))
(let ((.def_43 (or .def_36 .def_42)))
(let ((.def_45 (and .def_43 .def_44)))
(let ((.def_51 (and .def_45 .def_50)))
(let ((.def_68 (and .def_51 .def_67)))
(let ((.def_25 (= b.speed_y__AT0 0.0 )))
(let ((.def_22 (= b.y__AT0 10.0 )))
(let ((.def_17 (= b.time__AT0 0.0 )))
(let ((.def_19 (and .def_17 b.event_is_timed__AT0)))
(let ((.def_23 (and .def_19 .def_22)))
(let ((.def_26 (and .def_23 .def_25)))
(let ((.def_38 (and .def_26 .def_37)))
(let ((.def_69 (and .def_38 .def_68)))
(let ((.def_7 (and .def_4 .def_6)))
(let ((.def_10 (and .def_7 .def_9)))
(let ((.def_13 (and .def_10 .def_12)))
(let ((.def_14 (not .def_13)))
(let ((.def_70 (and .def_14 .def_69)))
(let ((.def_147 (and .def_70 .def_146)))
(let ((.def_307 (and .def_147 .def_306)))
(let ((.def_377 (and .def_307 .def_376)))
(let ((.def_534 (and .def_377 .def_533)))
(let ((.def_604 (and .def_534 .def_603)))
(let ((.def_753 (and .def_604 .def_752)))
(let ((.def_823 (and .def_753 .def_822)))
.def_823))))))))))))))))))))))))))))))))))))))))))))))))))))))))))))))))))))))))))))))))))))))))))))))))))))))))))))))))))))))))))))))))))))))))))))))))))))))))))))))))))))))))))))))))))))))))))))))))))))))))))))))))))))))))))))))))))))))))))))))))))))))))))))))))))))))))))))))))))))))))))))))))))))))))))))))))))))))))))))))))))))))))))))))))))))))))))))))))))))))))))))))))))))))))))))))))))))))))))))))))))))))))))))))))))))))))))))))))))))))))))))))))))))))))))))))))))))))))))))))))))))))))))))))))))))))))))))))))))))))))))))))))))))))))))))))))))))))))))))))))))))))))))))))))))))))))))))))))))))))))))))))))))))))))))))))))))))))))))))))))))))))))))))))))))))))))))))))))))))))))))))))))))))))))))))))))))))))))))))))))))))))))))))))))))))))))
(check-sat)
(exit)
